12
0 11 13 15 17 19 21 23 25 27 29 31
11 0 9 13 15 17 19 21 23 25 27 29
13 9 0 11 13 15 17 19 21 23 25 27
15 13 11 0 9 11 15 17 19 21 23 25
17 15 13 9 0 7 11 15 17 19 21 23
19 17 15 11 7 0 9 13 15 17 19 21
21 19 17 15 11 9 0 11 13 15 17 19
23 21 19 17 15 13 11 0 9 13 15 17
25 23 21 19 17 15 13 9 0 11 13 15
27 25 23 21 19 17 15 13 11 0 9 13
29 27 25 23 21 19 17 15 13 9 0 11
31 29 27 25 23 21 19 17 15 13 11 0
0 0 380 0
1 12 120 5
2 22 130 4
3 32 140 6
4 42 150 5
5 52 160 4
6 62 170 5
7 72 180 6
8 82 190 4
9 92 200 5
10 102 210 4
11 112 220 5
